data/CVRPLIB/Vrp-Set-XML100/instances/XML100_2115_16.vrp
NAME : XML100_2115_16
COMMENT : Generated by Queiroga, Sadykov, Uchoa, and Vidal (2021)
TYPE : CVRP
DIMENSION : 101
EDGE_WEIGHT_TYPE : EUC_2D
CAPACITY : 24
NODE_COORD_SECTION
1    500  500 
2    591  418 
3    210  72  
4    217  421 
5    995  459 
6    1    111 
7    140  319 
8    136  210 
9    5    406 
10   493  809 
11   231  104 
12   293  926 
13   708  392 
14   112  963 
15   386  763 
16   178  913 
17   409  650 
18   580  621 
19   735  530 
20   461  784 
21   432  109 
22   328  378 
23   390  317 
24   823  593 
25   153  327 
26   239  220 
27   851  620 
28   797  653 
29   417  244 
30   439  830 
31   556  283 
32   809  98  
33   302  569 
34   840  799 
35   186  990 
36   368  531 
37   9    851 
38   376  885 
39   261  48  
40   678  643 
41   484  771 
42   857  597 
43   362  163 
44   116  662 
45   238  344 
46   742  343 
47   861  387 
48   223  803 
49   668  407 
50   417  799 
51   419  323 
52   824  263 
53   744  224 
54   335  266 
55   715  256 
56   351  577 
57   711  724 
58   363  433 
59   278  120 
60   617  788 
61   998  609 
62   952  775 
63   79   28  
64   9    624 
65   387  297 
66   138  834 
67   730  280 
68   300  20  
69   390  99  
70   769  777 
71   585  768 
72   606  360 
73   732  853 
74   980  936 
75   625  630 
76   93   48  
77   476  683 
78   399  489 
79   96   882 
80   791  681 
81   190  529 
82   224  388 
83   63   660 
84   28   839 
85   258  594 
86   46   801 
87   302  693 
88   484  527 
89   40   204 
90   516  157 
91   149  798 
92   457  768 
93   452  114 
94   33   763 
95   648  949 
96   594  484 
97   298  697 
98   573  606 
99   475  522 
100  967  663 
101  173  541 
DEMAND_SECTION
1    0   
2    1   
3    1   
4    1   
5    1   
6    1   
7    1   
8    1   
9    1   
10   1   
11   1   
12   1   
13   1   
14   1   
15   1   
16   1   
17   1   
18   1   
19   1   
20   1   
21   1   
22   1   
23   1   
24   1   
25   1   
26   1   
27   1   
28   1   
29   1   
30   1   
31   1   
32   1   
33   1   
34   1   
35   1   
36   1   
37   1   
38   1   
39   1   
40   1   
41   1   
42   1   
43   1   
44   1   
45   1   
46   1   
47   1   
48   1   
49   1   
50   1   
51   1   
52   1   
53   1   
54   1   
55   1   
56   1   
57   1   
58   1   
59   1   
60   1   
61   1   
62   1   
63   1   
64   1   
65   1   
66   1   
67   1   
68   1   
69   1   
70   1   
71   1   
72   1   
73   1   
74   1   
75   1   
76   1   
77   1   
78   1   
79   1   
80   1   
81   1   
82   1   
83   1   
84   1   
85   1   
86   1   
87   1   
88   1   
89   1   
90   1   
91   1   
92   1   
93   1   
94   1   
95   1   
96   1   
97   1   
98   1   
99   1   
100  1   
101  1   
DEPOT_SECTION
1
-1
EOF
