data/CVRPLIB/Vrp-Set-XML100/solutions/XML100_2115_16.sol
Route #1: 97 17 70 59 94 72 69 33 73 61 99 60 4 46 51 31 52 54 66 45 12 48
Route #2: 76 40 9 19 91 14 49 29 37 11 15 34 13 78 36 83 85 93 65 90 47 96 86 16
Route #3: 1 71 30 89 92 20 68 42 58 67 38 10 2 75 62 5 88 7 25 53 28 64 22 50
Route #4: 77 57 21 3 81 44 24 6 8 63 82 43 100 80 84 32 55 35 98 87
Route #5: 95 18 23 41 26 27 79 56 39 74
Cost 8914
